Minimize
  35 x_premium_brand + 20 x_regular_brand
Subject To
  c1: 4 x_regular_brand + 12 x_premium_brand >= 15
  c2: 7 x_regular_brand + 10 x_premium_brand >= 20
  c3: 10 x_regular_brand + 16 x_premium_brand >= 20
Integer
  x_premium_brand x_regular_brand
End